\ SCIP STATISTICS
\   Problem name     : model
\   Variables        : 102 (0 binary, 0 integer, 0 implicit integer, 102 continuous)
\   Constraints      : 5
Minimize
 Obj: +0.504000013008714 theta_0 +0.586000009119511 theta_1 +0.422000016897917 theta_2 -0.0339999995231628 theta_3
      -0.0223000039458274 theta_5 -0.0119999996125698 theta_6 -0.0119999996125698 theta_7 -0.0119999996125698 theta_8
      -0.0119999996125698 theta_9 -0.0119999996125698 theta_10 -0.0119999996125698 theta_11 -0.0119999996125698 theta_12
      -0.0119999996125698 theta_13 -0.0119999996125698 theta_14 -0.0119999996125698 theta_15 -0.0119999996125698 theta_16
      -0.0119999996125698 theta_17 -0.0119999996125698 theta_18 -0.0119999996125698 theta_19 -0.0119999996125698 theta_20
      -0.0119999996125698 theta_21 -0.0119999996125698 theta_22 -0.0119999996125698 theta_23 -0.0119999996125698 theta_24
      -0.0119999996125698 theta_25 -0.0119999996125698 theta_26 -0.0119999996125698 theta_27 -0.0119999996125698 theta_28
      -0.0119999996125698 theta_29 -0.0119999996125698 theta_30 -0.0119999996125698 theta_31 -0.0119999996125698 theta_32
      -0.0119999996125698 theta_33 -0.0119999996125698 theta_34 -0.0119999996125698 theta_35 -0.0119999996125698 theta_36
      -0.0119999996125698 theta_37 -0.0119999996125698 theta_38 -0.0119999996125698 theta_39 -0.0119999996125698 theta_40
      -0.0119999996125698 theta_41 -0.0119999996125698 theta_42 -0.0119999996125698 theta_43 -0.0119999996125698 theta_44
      -0.0119999996125698 theta_45 -0.0119999996125698 theta_46 -0.0119999996125698 theta_47 -0.0119999996125698 theta_48
      -0.0119999996125698 theta_49 -0.0119999996125698 theta_50 -0.0119999996125698 theta_51 -0.0119999996125698 theta_52
      -0.0119999996125698 theta_53 -0.0119999996125698 theta_54 -0.0119999996125698 theta_55 -0.0119999996125698 theta_56
      -0.0119999996125698 theta_57 -0.0119999996125698 theta_58 -0.0119999996125698 theta_59 -0.0119999996125698 theta_60
      -0.0119999996125698 theta_61 -0.0119999996125698 theta_62 -0.0119999996125698 theta_63 -0.0119999996125698 theta_64
      -0.0119999996125698 theta_65 -0.0119999996125698 theta_66 -0.0119999996125698 theta_67 -0.0119999996125698 theta_68
      -0.0119999996125698 theta_69 -0.0119999996125698 theta_70 -0.0119999996125698 theta_71 -0.0119999996125698 theta_72
      -0.0119999996125698 theta_73 -0.0119999996125698 theta_74 -0.0119999996125698 theta_75 -0.0119999996125698 theta_76
      -0.0119999996125698 theta_77 -0.0119999996125698 theta_78 -0.0119999996125698 theta_79 -0.0119999996125698 theta_80
      -0.0119999996125698 theta_81 -0.0119999996125698 theta_82 -0.0119999996125698 theta_83 -0.0119999996125698 theta_84
      -0.0119999996125698 theta_85 -0.0119999996125698 theta_86 -0.0119999996125698 theta_87 -0.0119999996125698 theta_88
      -0.0119999996125698 theta_89 -0.0119999996125698 theta_90 -0.0119999996125698 theta_91 -0.0119999996125698 theta_92
      -0.0119999996125698 theta_93 -0.0119999996125698 theta_94 -0.0119999996125698 theta_95 -0.0119999996125698 theta_96
      -0.0119999996125698 theta_97 -0.0119999996125698 theta_98 -0.0119999996125698 theta_99 -0.0119999996125698 theta_100
      -0.0119999996125698 theta_101
Subject to
 convex_comb: +1 theta_0 +1 theta_1 +1 theta_2 +1 theta_3 +1 theta_4 +1 theta_5 +1 theta_6 +1 theta_7
  +1 theta_8 +1 theta_9 +1 theta_10 +1 theta_11 +1 theta_12 +1 theta_13 +1 theta_14 +1 theta_15 +1 theta_16
  +1 theta_17 +1 theta_18 +1 theta_19 +1 theta_20 +1 theta_21 +1 theta_22 +1 theta_23 +1 theta_24 +1 theta_25
  +1 theta_26 +1 theta_27 +1 theta_28 +1 theta_29 +1 theta_30 +1 theta_31 +1 theta_32 +1 theta_33 +1 theta_34
  +1 theta_35 +1 theta_36 +1 theta_37 +1 theta_38 +1 theta_39 +1 theta_40 +1 theta_41 +1 theta_42 +1 theta_43
  +1 theta_44 +1 theta_45 +1 theta_46 +1 theta_47 +1 theta_48 +1 theta_49 +1 theta_50 +1 theta_51 +1 theta_52
  +1 theta_53 +1 theta_54 +1 theta_55 +1 theta_56 +1 theta_57 +1 theta_58 +1 theta_59 +1 theta_60 +1 theta_61
  +1 theta_62 +1 theta_63 +1 theta_64 +1 theta_65 +1 theta_66 +1 theta_67 +1 theta_68 +1 theta_69 +1 theta_70
  +1 theta_71 +1 theta_72 +1 theta_73 +1 theta_74 +1 theta_75 +1 theta_76 +1 theta_77 +1 theta_78 +1 theta_79
  +1 theta_80 +1 theta_81 +1 theta_82 +1 theta_83 +1 theta_84 +1 theta_85 +1 theta_86 +1 theta_87 +1 theta_88
  +1 theta_89 +1 theta_90 +1 theta_91 +1 theta_92 +1 theta_93 +1 theta_94 +1 theta_95 +1 theta_96 +1 theta_97
  +1 theta_98 +1 theta_99 +1 theta_100 +1 theta_101 = +1
 relaxed_cons_0,0,1: -0.2 theta_4 +0.2 theta_5 -0.194999915634598 theta_6 -0.194999915634598 theta_7 -0.194999915634598 theta_8
  -0.194999915634598 theta_9 -0.194999915634598 theta_10 -0.194999915634598 theta_11 -0.194999915634598 theta_12
  -0.194999915634598 theta_13 -0.194999915634598 theta_14 -0.194999915634598 theta_15 -0.194999915634598 theta_16
  -0.194999915634598 theta_17 -0.194999915634598 theta_18 -0.194999915634598 theta_19 -0.194999915634598 theta_20
  -0.194999915634598 theta_21 -0.194999915634598 theta_22 -0.194999915634598 theta_23 -0.194999915634598 theta_24
  -0.194999915634598 theta_25 -0.194999915634598 theta_26 -0.194999915634598 theta_27 -0.194999915634598 theta_28
  -0.194999915634598 theta_29 -0.194999915634598 theta_30 -0.194999915634598 theta_31 -0.194999915634598 theta_32
  -0.194999915634598 theta_33 -0.194999915634598 theta_34 -0.194999915634598 theta_35 -0.194999915634598 theta_36
  -0.194999915634598 theta_37 -0.194999915634598 theta_38 -0.194999915634598 theta_39 -0.194999915634598 theta_40
  -0.194999915634598 theta_41 -0.194999915634598 theta_42 -0.194999915634598 theta_43 -0.194999915634598 theta_44
  -0.194999915634598 theta_45 -0.194999915634598 theta_46 -0.194999915634598 theta_47 -0.194999915634598 theta_48
  -0.194999915634598 theta_49 -0.194999915634598 theta_50 -0.194999915634598 theta_51 -0.194999915634598 theta_52
  -0.194999915634598 theta_53 -0.194999915634598 theta_54 -0.194999915634598 theta_55 -0.194999915634598 theta_56
  -0.194999915634598 theta_57 -0.194999915634598 theta_58 -0.194999915634598 theta_59 -0.194999915634598 theta_60
  -0.194999915634598 theta_61 -0.194999915634598 theta_62 -0.194999915634598 theta_63 -0.194999915634598 theta_64
  -0.194999915634598 theta_65 -0.194999915634598 theta_66 -0.194999915634598 theta_67 -0.194999915634598 theta_68
  -0.194999915634598 theta_69 -0.194999915634598 theta_70 -0.194999915634598 theta_71 -0.194999915634598 theta_72
  -0.194999915634598 theta_73 -0.194999915634598 theta_74 -0.194999915634598 theta_75 -0.194999915634598 theta_76
  -0.194999915634598 theta_77 -0.194999915634598 theta_78 -0.194999915634598 theta_79 -0.194999915634598 theta_80
  -0.194999915634598 theta_81 -0.194999915634598 theta_82 -0.194999915634598 theta_83 -0.194999915634598 theta_84
  -0.194999915634598 theta_85 -0.194999915634598 theta_86 -0.194999915634598 theta_87 -0.194999915634598 theta_88
  -0.194999915634598 theta_89 -0.194999915634598 theta_90 -0.194999915634598 theta_91 -0.194999915634598 theta_92
  -0.194999915634598 theta_93 -0.194999915634598 theta_94 -0.194999915634598 theta_95 -0.194999915634598 theta_96
  -0.194999915634598 theta_97 -0.194999915634598 theta_98 -0.194999915634598 theta_99 -0.194999915634598 theta_100
  -0.194999915634598 theta_101 = +0
 relaxed_cons_0,1,0: +0.0666666710818256 theta_3 +0.2 theta_4 +0.2 theta_5 = +0
 relaxed_cons_1,0,1: +0.579999999701977 theta_3 +0.701000010430813 theta_4 +0.661000009834766 theta_5
  +0.881000005662441 theta_6 +0.881000005662441 theta_7 +0.881000005662441 theta_8 +0.881000005662441 theta_9
  +0.881000005662441 theta_10 +0.881000005662441 theta_11 +0.881000005662441 theta_12 +0.881000005662441 theta_13
  +0.881000005662441 theta_14 +0.881000005662441 theta_15 +0.881000005662441 theta_16 +0.881000005662441 theta_17
  +0.881000005662441 theta_18 +0.881000005662441 theta_19 +0.881000005662441 theta_20 +0.881000005662441 theta_21
  +0.881000005662441 theta_22 +0.881000005662441 theta_23 +0.881000005662441 theta_24 +0.881000005662441 theta_25
  +0.881000005662441 theta_26 +0.881000005662441 theta_27 +0.881000005662441 theta_28 +0.881000005662441 theta_29
  +0.881000005662441 theta_30 +0.881000005662441 theta_31 +0.881000005662441 theta_32 +0.881000005662441 theta_33
  +0.881000005662441 theta_34 +0.881000005662441 theta_35 +0.881000005662441 theta_36 +0.881000005662441 theta_37
  +0.881000005662441 theta_38 +0.881000005662441 theta_39 +0.881000005662441 theta_40 +0.881000005662441 theta_41
  +0.881000005662441 theta_42 +0.881000005662441 theta_43 +0.881000005662441 theta_44 +0.881000005662441 theta_45
  +0.881000005662441 theta_46 +0.881000005662441 theta_47 +0.881000005662441 theta_48 +0.881000005662441 theta_49
  +0.881000005662441 theta_50 +0.881000005662441 theta_51 +0.881000005662441 theta_52 +0.881000005662441 theta_53
  +0.881000005662441 theta_54 +0.881000005662441 theta_55 +0.881000005662441 theta_56 +0.881000005662441 theta_57
  +0.881000005662441 theta_58 +0.881000005662441 theta_59 +0.881000005662441 theta_60 +0.881000005662441 theta_61
  +0.881000005662441 theta_62 +0.881000005662441 theta_63 +0.881000005662441 theta_64 +0.881000005662441 theta_65
  +0.881000005662441 theta_66 +0.881000005662441 theta_67 +0.881000005662441 theta_68 +0.881000005662441 theta_69
  +0.881000005662441 theta_70 +0.881000005662441 theta_71 +0.881000005662441 theta_72 +0.881000005662441 theta_73
  +0.881000005662441 theta_74 +0.881000005662441 theta_75 +0.881000005662441 theta_76 +0.881000005662441 theta_77
  +0.881000005662441 theta_78 +0.881000005662441 theta_79 +0.881000005662441 theta_80 +0.881000005662441 theta_81
  +0.881000005662441 theta_82 +0.881000005662441 theta_83 +0.881000005662441 theta_84 +0.881000005662441 theta_85
  +0.881000005662441 theta_86 +0.881000005662441 theta_87 +0.881000005662441 theta_88 +0.881000005662441 theta_89
  +0.881000005662441 theta_90 +0.881000005662441 theta_91 +0.881000005662441 theta_92 +0.881000005662441 theta_93
  +0.881000005662441 theta_94 +0.881000005662441 theta_95 +0.881000005662441 theta_96 +0.881000005662441 theta_97
  +0.881000005662441 theta_98 +0.881000005662441 theta_99 +0.881000005662441 theta_100 +0.881000005662441 theta_101
  = +0
 relaxed_cons_1,1,0: -0.380000019073486 theta_3 +0.300999988079071 theta_4 -0.560000014305115 theta_5
  -0.501500037290155 theta_6 -0.501500037290155 theta_7 -0.501500037290155 theta_8 -0.501500037290155 theta_9
  -0.501500037290155 theta_10 -0.501500037290155 theta_11 -0.501500037290155 theta_12 -0.501500037290155 theta_13
  -0.501500037290155 theta_14 -0.501500037290155 theta_15 -0.501500037290155 theta_16 -0.501500037290155 theta_17
  -0.501500037290155 theta_18 -0.501500037290155 theta_19 -0.501500037290155 theta_20 -0.501500037290155 theta_21
  -0.501500037290155 theta_22 -0.501500037290155 theta_23 -0.501500037290155 theta_24 -0.501500037290155 theta_25
  -0.501500037290155 theta_26 -0.501500037290155 theta_27 -0.501500037290155 theta_28 -0.501500037290155 theta_29
  -0.501500037290155 theta_30 -0.501500037290155 theta_31 -0.501500037290155 theta_32 -0.501500037290155 theta_33
  -0.501500037290155 theta_34 -0.501500037290155 theta_35 -0.501500037290155 theta_36 -0.501500037290155 theta_37
  -0.501500037290155 theta_38 -0.501500037290155 theta_39 -0.501500037290155 theta_40 -0.501500037290155 theta_41
  -0.501500037290155 theta_42 -0.501500037290155 theta_43 -0.501500037290155 theta_44 -0.501500037290155 theta_45
  -0.501500037290155 theta_46 -0.501500037290155 theta_47 -0.501500037290155 theta_48 -0.501500037290155 theta_49
  -0.501500037290155 theta_50 -0.501500037290155 theta_51 -0.501500037290155 theta_52 -0.501500037290155 theta_53
  -0.501500037290155 theta_54 -0.501500037290155 theta_55 -0.501500037290155 theta_56 -0.501500037290155 theta_57
  -0.501500037290155 theta_58 -0.501500037290155 theta_59 -0.501500037290155 theta_60 -0.501500037290155 theta_61
  -0.501500037290155 theta_62 -0.501500037290155 theta_63 -0.501500037290155 theta_64 -0.501500037290155 theta_65
  -0.501500037290155 theta_66 -0.501500037290155 theta_67 -0.501500037290155 theta_68 -0.501500037290155 theta_69
  -0.501500037290155 theta_70 -0.501500037290155 theta_71 -0.501500037290155 theta_72 -0.501500037290155 theta_73
  -0.501500037290155 theta_74 -0.501500037290155 theta_75 -0.501500037290155 theta_76 -0.501500037290155 theta_77
  -0.501500037290155 theta_78 -0.501500037290155 theta_79 -0.501500037290155 theta_80 -0.501500037290155 theta_81
  -0.501500037290155 theta_82 -0.501500037290155 theta_83 -0.501500037290155 theta_84 -0.501500037290155 theta_85
  -0.501500037290155 theta_86 -0.501500037290155 theta_87 -0.501500037290155 theta_88 -0.501500037290155 theta_89
  -0.501500037290155 theta_90 -0.501500037290155 theta_91 -0.501500037290155 theta_92 -0.501500037290155 theta_93
  -0.501500037290155 theta_94 -0.501500037290155 theta_95 -0.501500037290155 theta_96 -0.501500037290155 theta_97
  -0.501500037290155 theta_98 -0.501500037290155 theta_99 -0.501500037290155 theta_100 -0.501500037290155 theta_101
  = +0
Bounds
 0 <= theta_0 <= 1
 0 <= theta_1 <= 1
 0 <= theta_2 <= 1
 0 <= theta_3 <= 1
 0 <= theta_4 <= 1
 0 <= theta_5 <= 1
 0 <= theta_6 <= 1
 0 <= theta_7 <= 1
 0 <= theta_8 <= 1
 0 <= theta_9 <= 1
 0 <= theta_10 <= 1
 0 <= theta_11 <= 1
 0 <= theta_12 <= 1
 0 <= theta_13 <= 1
 0 <= theta_14 <= 1
 0 <= theta_15 <= 1
 0 <= theta_16 <= 1
 0 <= theta_17 <= 1
 0 <= theta_18 <= 1
 0 <= theta_19 <= 1
 0 <= theta_20 <= 1
 0 <= theta_21 <= 1
 0 <= theta_22 <= 1
 0 <= theta_23 <= 1
 0 <= theta_24 <= 1
 0 <= theta_25 <= 1
 0 <= theta_26 <= 1
 0 <= theta_27 <= 1
 0 <= theta_28 <= 1
 0 <= theta_29 <= 1
 0 <= theta_30 <= 1
 0 <= theta_31 <= 1
 0 <= theta_32 <= 1
 0 <= theta_33 <= 1
 0 <= theta_34 <= 1
 0 <= theta_35 <= 1
 0 <= theta_36 <= 1
 0 <= theta_37 <= 1
 0 <= theta_38 <= 1
 0 <= theta_39 <= 1
 0 <= theta_40 <= 1
 0 <= theta_41 <= 1
 0 <= theta_42 <= 1
 0 <= theta_43 <= 1
 0 <= theta_44 <= 1
 0 <= theta_45 <= 1
 0 <= theta_46 <= 1
 0 <= theta_47 <= 1
 0 <= theta_48 <= 1
 0 <= theta_49 <= 1
 0 <= theta_50 <= 1
 0 <= theta_51 <= 1
 0 <= theta_52 <= 1
 0 <= theta_53 <= 1
 0 <= theta_54 <= 1
 0 <= theta_55 <= 1
 0 <= theta_56 <= 1
 0 <= theta_57 <= 1
 0 <= theta_58 <= 1
 0 <= theta_59 <= 1
 0 <= theta_60 <= 1
 0 <= theta_61 <= 1
 0 <= theta_62 <= 1
 0 <= theta_63 <= 1
 0 <= theta_64 <= 1
 0 <= theta_65 <= 1
 0 <= theta_66 <= 1
 0 <= theta_67 <= 1
 0 <= theta_68 <= 1
 0 <= theta_69 <= 1
 0 <= theta_70 <= 1
 0 <= theta_71 <= 1
 0 <= theta_72 <= 1
 0 <= theta_73 <= 1
 0 <= theta_74 <= 1
 0 <= theta_75 <= 1
 0 <= theta_76 <= 1
 0 <= theta_77 <= 1
 0 <= theta_78 <= 1
 0 <= theta_79 <= 1
 0 <= theta_80 <= 1
 0 <= theta_81 <= 1
 0 <= theta_82 <= 1
 0 <= theta_83 <= 1
 0 <= theta_84 <= 1
 0 <= theta_85 <= 1
 0 <= theta_86 <= 1
 0 <= theta_87 <= 1
 0 <= theta_88 <= 1
 0 <= theta_89 <= 1
 0 <= theta_90 <= 1
 0 <= theta_91 <= 1
 0 <= theta_92 <= 1
 0 <= theta_93 <= 1
 0 <= theta_94 <= 1
 0 <= theta_95 <= 1
 0 <= theta_96 <= 1
 0 <= theta_97 <= 1
 0 <= theta_98 <= 1
 0 <= theta_99 <= 1
 0 <= theta_100 <= 1
 0 <= theta_101 <= 1
End
